unsat
(:SPACER-cluster-out-of-gas           1737
 :SPACER-concretize                   178
 :SPACER-conj                         289
 :SPACER-inductive-gen                1239
 :SPACER-inductive-gen-weaken-fail    1434
 :SPACER-inductive-gen-weaken-success 44
 :SPACER-inductive-level              146
 :SPACER-max-depth                    146
 :SPACER-max-query-lvl                146
 :SPACER-non-local-gen                2633
 :SPACER-num-active-lemmas            230
 :SPACER-num-ctp-blocked              16365
 :SPACER-num-invariants               100
 :SPACER-num-is_invariant             56374
 :SPACER-num-lemma-jumped             1489
 :SPACER-num-lemmas                   2951
 :SPACER-num-non-lin                  75
 :SPACER-num-pobs                     1375
 :SPACER-num-propagations             38194
 :SPACER-num-queries                  1640
 :SPACER-pob-out-of-gas               6
 :SPACER-subsume-failed               36
 :SPACER-subsume-pob                  342
 :SPACER-subsume-success              1289
 :added-eqs                           239778
 :arith-assert-diseq                  1488810
 :arith-assert-lower                  3276450
 :arith-assert-upper                  5937294
 :arith-bound-prop                    14288
 :arith-conflicts                     1316
 :arith-eq-adapter                    17744
 :arith-fixed-eqs                     58990
 :arith-num-rows                      200
 :arith-offset-eqs                    34054
 :arith-pivots                        15034
 :arith-row-summations                468728
 :arith-tableau-max-columns           506
 :arith-tableau-max-rows              200
 :conflicts                           101442
 :decisions                           3801966
 :del-clause                          103892
 :final-checks                        9088
 :iuc_solver.num_proxies              1079
 :max-memory                          1135.71
 :memory                              925.86
 :minimized-lits                      6492
 :mk-bool-var                         230966
 :mk-clause                           282390
 :num-allocs                          13249956627261.00
 :num-checks                          102134
 :pool_solver.checks                  51067
 :pool_solver.checks.sat              4004
 :pool_solver.checks.undef            540
 :propagations                        35220140
 :rlimit-count                        95987426
 :time                                263.13
 :time.iuc_solver.get_iuc             3.54
 :time.iuc_solver.get_iuc.hyp_reduce1 0.75
 :time.iuc_solver.get_iuc.hyp_reduce2 1.65
 :time.iuc_solver.get_iuc.learn_core  0.63
 :time.pool_solver.proof              0.54
 :time.pool_solver.smt.total          223.94
 :time.pool_solver.smt.total.sat      59.93
 :time.pool_solver.smt.total.undef    16.27
 :time.spacer.ctp                     5.09
 :time.spacer.init_rules              0.00
 :time.spacer.mbp                     0.40
 :time.spacer.solve                   262.83
 :time.spacer.solve.propagate         140.15
 :time.spacer.solve.reach             122.68
 :time.spacer.solve.reach.children    4.03
 :time.spacer.solve.reach.cluster     7.69
 :time.spacer.solve.reach.gen.global  10.71
 :time.spacer.solve.reach.gen.ind     4.53
 :time.spacer.solve.reach.is-reach    1.10)
(:max-memory   1135.71
 :memory       925.86
 :num-allocs   13249956627261.00
 :rlimit-count 95987426
 :time         263.13
 :total-time   263.13)
